nK = 653;
nT = 4;
nI = 7;
L = 35;
TT = 141;
np = 1;
nc = 3;
b = [46, 55, 55, 64, 20, 27, 20];
d = [107, 92, 131, 131, 98, 97, 73];
m = [1.6, 2.2, 1.7, 2.2, 1.2, 2, 1.6];
pt = [0.25, 0.26, 0.2, 0.3];
st = [10, 13.26, 10.4, 15];
arc = {<1, 0, 1, 1, 0, 0, 0, [1, 1, 1, 1]>, <2, 1, 2, 1, 0, 0, 0, [1, 1, 1, 1]>, <3, 2, 3, 1, 0, 0, 0, [1, 1, 1, 1]>, <4, 3, 4, 1, 0, 0, 0, [1, 1, 1, 1]>, <5, 4, 5, 1, 0, 0, 0, [1, 1, 1, 1]>, <6, 5, 6, 1, 0, 0, 0, [1, 1, 1, 1]>, <7, 6, 7, 1, 0, 0, 0, [1, 1, 1, 1]>, <8, 7, 8, 1, 0, 0, 0, [1, 1, 1, 1]>, <9, 8, 9, 1, 0, 0, 0, [1, 1, 1, 1]>, <10, 9, 10, 1, 0, 0, 0, [1, 1, 1, 1]>, <11, 10, 11, 1, 0, 0, 0, [1, 1, 1, 1]>, <12, 11, 12, 1, 0, 0, 0, [1, 1, 1, 1]>, <13, 12, 13, 1, 0, 0, 0, [1, 1, 1, 1]>, <14, 13, 14, 1, 0, 0, 0, [1, 1, 1, 1]>, <15, 14, 15, 1, 0, 0, 0, [1, 1, 1, 1]>, <16, 15, 16, 1, 0, 0, 0, [1, 1, 1, 1]>, <17, 16, 17, 1, 0, 0, 0, [1, 1, 1, 1]>, <18, 17, 18, 1, 0, 0, 0, [1, 1, 1, 1]>, <19, 18, 19, 1, 0, 0, 0, [1, 1, 1, 1]>, <20, 19, 20, 1, 0, 0, 0, [1, 1, 1, 1]>, <21, 20, 21, 1, 0, 0, 0, [1, 1, 1, 1]>, <22, 21, 22, 1, 0, 0, 0, [1, 1, 1, 1]>, <23, 22, 23, 1, 0, 0, 0, [1, 1, 1, 1]>, <24, 23, 24, 1, 0, 0, 0, [1, 1, 1, 1]>, <25, 24, 25, 1, 0, 0, 0, [1, 1, 1, 1]>, <26, 25, 26, 1, 0, 0, 0, [1, 1, 1, 1]>, <27, 26, 27, 1, 0, 0, 0, [1, 1, 1, 1]>, <28, 27, 28, 1, 0, 0, 0, [1, 1, 1, 1]>, <29, 28, 29, 1, 0, 0, 0, [1, 1, 1, 1]>, <30, 29, 30, 1, 0, 0, 0, [1, 1, 1, 1]>, <31, 30, 31, 1, 0, 0, 0, [1, 1, 1, 1]>, <32, 31, 32, 1, 0, 0, 0, [1, 1, 1, 1]>, <33, 32, 33, 1, 0, 0, 0, [1, 1, 1, 1]>, <34, 33, 34, 1, 0, 0, 0, [1, 1, 1, 1]>, <35, 34, 35, 1, 0, 0, 0, [1, 1, 1, 1]>, <36, 0, 17, 17, 1, 0, 1, [1, 0, 1, 1]>, <37, 1, 18, 17, 1, 0, 1, [1, 0, 1, 1]>, <38, 2, 19, 17, 1, 0, 1, [1, 0, 1, 1]>, <39, 3, 20, 17, 1, 0, 1, [1, 0, 1, 1]>, <40, 4, 21, 17, 1, 0, 1, [1, 0, 1, 1]>, <41, 5, 22, 17, 1, 0, 1, [1, 0, 1, 1]>, <42, 6, 23, 17, 1, 0, 1, [1, 0, 1, 1]>, <43, 9, 26, 17, 1, 0, 1, [1, 0, 1, 1]>, <44, 10, 27, 17, 1, 0, 1, [1, 0, 1, 1]>, <45, 11, 28, 17, 1, 0, 1, [1, 0, 1, 1]>, <46, 12, 29, 17, 1, 0, 1, [1, 0, 1, 1]>, <47, 13, 30, 17, 1, 0, 1, [1, 0, 1, 1]>, <48, 14, 31, 17, 1, 0, 1, [1, 0, 1, 1]>, <49, 15, 32, 17, 1, 0, 1, [1, 0, 1, 1]>, <50, 16, 33, 17, 1, 0, 1, [1, 0, 1, 1]>, <51, 17, 34, 17, 1, 0, 1, [1, 0, 1, 1]>, <52, 18, 35, 17, 1, 0, 1, [1, 0, 1, 1]>, <53, 2, 17, 15, 2, 0, 0, [0, 1, 1, 1]>, <54, 3, 18, 15, 2, 0, 0, [0, 1, 1, 1]>, <55, 4, 19, 15, 2, 0, 0, [0, 1, 1, 1]>, <56, 5, 20, 15, 2, 0, 0, [0, 1, 1, 1]>, <57, 6, 21, 15, 2, 0, 0, [0, 1, 1, 1]>, <58, 11, 26, 15, 2, 0, 0, [0, 1, 1, 1]>, <59, 12, 27, 15, 2, 0, 0, [0, 1, 1, 1]>, <60, 13, 28, 15, 2, 0, 0, [0, 1, 1, 1]>, <61, 14, 29, 15, 2, 0, 0, [0, 1, 1, 1]>, <62, 15, 30, 15, 2, 0, 0, [0, 1, 1, 1]>, <63, 16, 31, 15, 2, 0, 0, [0, 1, 1, 1]>, <64, 17, 32, 15, 2, 0, 0, [0, 1, 1, 1]>, <65, 18, 33, 15, 2, 0, 0, [0, 1, 1, 1]>, <66, 19, 34, 15, 2, 0, 0, [0, 1, 1, 1]>, <67, 20, 35, 15, 2, 0, 0, [0, 1, 1, 1]>, <68, 0, 18, 18, 3, 0, 1, [1, 0, 1, 1]>, <69, 1, 19, 18, 3, 0, 1, [1, 0, 1, 1]>, <70, 2, 20, 18, 3, 0, 1, [1, 0, 1, 1]>, <71, 3, 21, 18, 3, 0, 1, [1, 0, 1, 1]>, <72, 4, 22, 18, 3, 0, 1, [1, 0, 1, 1]>, <73, 5, 23, 18, 3, 0, 1, [1, 0, 1, 1]>, <74, 6, 24, 18, 3, 0, 1, [1, 0, 1, 1]>, <75, 8, 26, 18, 3, 0, 1, [1, 0, 1, 1]>, <76, 9, 27, 18, 3, 0, 1, [1, 0, 1, 1]>, <77, 10, 28, 18, 3, 0, 1, [1, 0, 1, 1]>, <78, 11, 29, 18, 3, 0, 1, [1, 0, 1, 1]>, <79, 12, 30, 18, 3, 0, 1, [1, 0, 1, 1]>, <80, 13, 31, 18, 3, 0, 1, [1, 0, 1, 1]>, <81, 14, 32, 18, 3, 0, 1, [1, 0, 1, 1]>, <82, 15, 33, 18, 3, 0, 1, [1, 0, 1, 1]>, <83, 16, 34, 18, 3, 0, 1, [1, 0, 1, 1]>, <84, 17, 35, 18, 3, 0, 1, [1, 0, 1, 1]>, <85, 4, 17, 13, 4, 0, 1, [1, 1, 0, 1]>, <86, 5, 18, 13, 4, 0, 1, [1, 1, 0, 1]>, <87, 6, 19, 13, 4, 0, 1, [1, 1, 0, 1]>, <88, 13, 26, 13, 4, 0, 1, [1, 1, 0, 1]>, <89, 14, 27, 13, 4, 0, 1, [1, 1, 0, 1]>, <90, 15, 28, 13, 4, 0, 1, [1, 1, 0, 1]>, <91, 18, 31, 13, 4, 0, 1, [1, 1, 0, 1]>, <92, 19, 32, 13, 4, 0, 1, [1, 1, 0, 1]>, <93, 20, 33, 13, 4, 0, 1, [1, 1, 0, 1]>, <94, 21, 34, 13, 4, 0, 1, [1, 1, 0, 1]>, <95, 22, 35, 13, 4, 0, 1, [1, 1, 0, 1]>, <96, 2, 17, 15, 5, 1, 0, [0, 1, 1, 1]>, <97, 3, 18, 15, 5, 1, 0, [0, 1, 1, 1]>, <98, 4, 19, 15, 5, 1, 0, [0, 1, 1, 1]>, <99, 5, 20, 15, 5, 1, 0, [0, 1, 1, 1]>, <100, 6, 21, 15, 5, 1, 0, [0, 1, 1, 1]>, <101, 11, 26, 15, 5, 1, 0, [0, 1, 1, 1]>, <102, 12, 27, 15, 5, 1, 0, [0, 1, 1, 1]>, <103, 13, 28, 15, 5, 1, 0, [0, 1, 1, 1]>, <104, 14, 29, 15, 5, 1, 0, [0, 1, 1, 1]>, <105, 15, 30, 15, 5, 1, 0, [0, 1, 1, 1]>, <106, 16, 31, 15, 5, 1, 0, [0, 1, 1, 1]>, <107, 17, 32, 15, 5, 1, 0, [0, 1, 1, 1]>, <108, 18, 33, 15, 5, 1, 0, [0, 1, 1, 1]>, <109, 19, 34, 15, 5, 1, 0, [0, 1, 1, 1]>, <110, 20, 35, 15, 5, 1, 0, [0, 1, 1, 1]>, <111, 3, 17, 14, 6, 0, 0, [1, 0, 1, 1]>, <112, 4, 18, 14, 6, 0, 0, [1, 0, 1, 1]>, <113, 5, 19, 14, 6, 0, 0, [1, 0, 1, 1]>, <114, 6, 20, 14, 6, 0, 0, [1, 0, 1, 1]>, <115, 12, 26, 14, 6, 0, 0, [1, 0, 1, 1]>, <116, 13, 27, 14, 6, 0, 0, [1, 0, 1, 1]>, <117, 14, 28, 14, 6, 0, 0, [1, 0, 1, 1]>, <118, 15, 29, 14, 6, 0, 0, [1, 0, 1, 1]>, <119, 17, 31, 14, 6, 0, 0, [1, 0, 1, 1]>, <120, 18, 32, 14, 6, 0, 0, [1, 0, 1, 1]>, <121, 19, 33, 14, 6, 0, 0, [1, 0, 1, 1]>, <122, 20, 34, 14, 6, 0, 0, [1, 0, 1, 1]>, <123, 21, 35, 14, 6, 0, 0, [1, 0, 1, 1]>, <124, 2, 17, 15, 7, 0, 1, [1, 1, 0, 1]>, <125, 3, 18, 15, 7, 0, 1, [1, 1, 0, 1]>, <126, 4, 19, 15, 7, 0, 1, [1, 1, 0, 1]>, <127, 5, 20, 15, 7, 0, 1, [1, 1, 0, 1]>, <128, 6, 21, 15, 7, 0, 1, [1, 1, 0, 1]>, <129, 11, 26, 15, 7, 0, 1, [1, 1, 0, 1]>, <130, 12, 27, 15, 7, 0, 1, [1, 1, 0, 1]>, <131, 13, 28, 15, 7, 0, 1, [1, 1, 0, 1]>, <132, 14, 29, 15, 7, 0, 1, [1, 1, 0, 1]>, <133, 15, 30, 15, 7, 0, 1, [1, 1, 0, 1]>, <134, 16, 31, 15, 7, 0, 1, [1, 1, 0, 1]>, <135, 17, 32, 15, 7, 0, 1, [1, 1, 0, 1]>, <136, 18, 33, 15, 7, 0, 1, [1, 1, 0, 1]>, <137, 19, 34, 15, 7, 0, 1, [1, 1, 0, 1]>, <138, 20, 35, 15, 7, 0, 1, [1, 1, 0, 1]>};
